% parameter space for all 3 cuts
SPACE_1 = 7..21;
SPACE_2 = 12..26;
SPACE_3 = 25..39;

% length of all card names for U.S. English
LENGTHS = [10, 10, 12, 11, 11, 10, 12, 12, 11, 10, 11, 12, 11,
           11, 11, 13, 12, 12, 11, 13, 13, 12, 11, 12, 13, 12,
           11, 11, 13, 12, 12, 11, 13, 13, 12, 11, 12, 13, 12,
           13, 13, 15, 14, 14, 13, 15, 15, 14, 13, 14, 15, 14];